mznc2025_probs/black-hole/black-hole.fzn
% Generated by MiniZinc 2.9.4
% Solver library: 
% Command line invocation: /home/vro5/minizinc-custom/bin/minizinc -O3 -c --solver mzn-fzn -I /home/vro5/Coding/minizincHLstdlib/std /home/vro5/Coding/AgenticSolvers/mznc2025_probs/black-hole/black-hole.mzn /home/vro5/Coding/AgenticSolvers/mznc2025_probs/black-hole/layout_3.json 

predicate fzn_table_int(array [int] of var int: x,array [int,int] of int: t);
predicate fzn_inverse(array [int] of var int: f,array [int] of var int: invf);
array [1..832] of int: X_INTRODUCED_104_ = [1,2,1,13,1,15,1,26,1,28,1,39,1,41,1,52,2,1,2,3,2,14,2,16,2,27,2,29,2,40,2,42,3,2,3,4,3,15,3,17,3,28,3,30,3,41,3,43,4,3,4,5,4,16,4,18,4,29,4,31,4,42,4,44,5,4,5,6,5,17,5,19,5,30,5,32,5,43,5,45,6,5,6,7,6,18,6,20,6,31,6,33,6,44,6,46,7,6,7,8,7,19,7,21,7,32,7,34,7,45,7,47,8,7,8,9,8,20,8,22,8,33,8,35,8,46,8,48,9,8,9,10,9,21,9,23,9,34,9,36,9,47,9,49,10,9,10,11,10,22,10,24,10,35,10,37,10,48,10,50,11,10,11,12,11,23,11,25,11,36,11,38,11,49,11,51,12,11,12,13,12,24,12,26,12,37,12,39,12,50,12,52,13,1,13,12,13,14,13,25,13,27,13,38,13,40,13,51,14,2,14,13,14,15,14,26,14,28,14,39,14,41,14,52,15,1,15,3,15,14,15,16,15,27,15,29,15,40,15,42,16,2,16,4,16,15,16,17,16,28,16,30,16,41,16,43,17,3,17,5,17,16,17,18,17,29,17,31,17,42,17,44,18,4,18,6,18,17,18,19,18,30,18,32,18,43,18,45,19,5,19,7,19,18,19,20,19,31,19,33,19,44,19,46,20,6,20,8,20,19,20,21,20,32,20,34,20,45,20,47,21,7,21,9,21,20,21,22,21,33,21,35,21,46,21,48,22,8,22,10,22,21,22,23,22,34,22,36,22,47,22,49,23,9,23,11,23,22,23,24,23,35,23,37,23,48,23,50,24,10,24,12,24,23,24,25,24,36,24,38,24,49,24,51,25,11,25,13,25,24,25,26,25,37,25,39,25,50,25,52,26,1,26,12,26,14,26,25,26,27,26,38,26,40,26,51,27,2,27,13,27,15,27,26,27,28,27,39,27,41,27,52,28,1,28,3,28,14,28,16,28,27,28,29,28,40,28,42,29,2,29,4,29,15,29,17,29,28,29,30,29,41,29,43,30,3,30,5,30,16,30,18,30,29,30,31,30,42,30,44,31,4,31,6,31,17,31,19,31,30,31,32,31,43,31,45,32,5,32,7,32,18,32,20,32,31,32,33,32,44,32,46,33,6,33,8,33,19,33,21,33,32,33,34,33,45,33,47,34,7,34,9,34,20,34,22,34,33,34,35,34,46,34,48,35,8,35,10,35,21,35,23,35,34,35,36,35,47,35,49,36,9,36,11,36,22,36,24,36,35,36,37,36,48,36,50,37,10,37,12,37,23,37,25,37,36,37,38,37,49,37,51,38,11,38,13,38,24,38,26,38,37,38,39,38,50,38,52,39,1,39,12,39,14,39,25,39,27,39,38,39,40,39,51,40,2,40,13,40,15,40,26,40,28,40,39,40,41,40,52,41,1,41,3,41,14,41,16,41,27,41,29,41,40,41,42,42,2,42,4,42,15,42,17,42,28,42,30,42,41,42,43,43,3,43,5,43,16,43,18,43,29,43,31,43,42,43,44,44,4,44,6,44,17,44,19,44,30,44,32,44,43,44,45,45,5,45,7,45,18,45,20,45,31,45,33,45,44,45,46,46,6,46,8,46,19,46,21,46,32,46,34,46,45,46,47,47,7,47,9,47,20,47,22,47,33,47,35,47,46,47,48,48,8,48,10,48,21,48,23,48,34,48,36,48,47,48,49,49,9,49,11,49,22,49,24,49,35,49,37,49,48,49,50,50,10,50,12,50,23,50,25,50,36,50,38,50,49,50,51,51,11,51,13,51,24,51,26,51,37,51,39,51,50,51,52,52,1,52,12,52,14,52,25,52,27,52,38,52,40,52,51];
array [1..2] of int: X_INTRODUCED_156_ = [1,-1];
var {26,39,41}: X_INTRODUCED_1_;
var {14,16,27}: X_INTRODUCED_2_;
var {2,4,26,39,41}: X_INTRODUCED_3_;
var {3,14,16,27,31,44}: X_INTRODUCED_4_;
var {2,4,6,26,32,39,41}: X_INTRODUCED_5_;
var {3,7,14,16,18,20,27,31,40,44,46,51}: X_INTRODUCED_6_;
var {2,4,6,8,11,13,21,24,26,32,34,39,41,43,47,50}: X_INTRODUCED_7_;
var {3,7,9,10,12,14,16,18,20,22,23,27,29,31,35,40,42,44,46,48,49,51}: X_INTRODUCED_8_;
var {2,4,6,8,9,10,11,13,21,22,23,24,26,28,30,32,34,35,36,37,39,41,43,45,47,48,49,50,52}: X_INTRODUCED_9_;
var {3,5,7,8,9,10,11,12,14,16,18,20,21,22,23,24,25,27,29,31,33,34,35,36,37,38,40,42,44,46,47,48,49,50,51}: X_INTRODUCED_10_;
var {2,4,6,7,8,9,10,11,12,13,15,17,19,20,21,22,23,24,25,26,28,30,32,33,34,35,36,37,38,39,41,43,45,46,47,48,49,50,51,52}: X_INTRODUCED_11_;
var {3,5,6,7,8,9,10,11,12,13,14,16,18,19,20,21,22,23,24,25,26,27,29,31,32,33,34,35,36,37,38,39,40,42,44,45,46,47,48,49,50,51,52}: X_INTRODUCED_12_;
var {2,4,5,6,7,8,9,10,11,12,13,14,15,17,18,19,20,21,22,23,24,25,26,27,28,30,31,32,33,34,35,36,37,38,39,40,41,43,44,45,46,47,48,49,50,51,52}: X_INTRODUCED_13_;
var 2..52: X_INTRODUCED_14_;
var 2..52: X_INTRODUCED_15_;
var 2..52: X_INTRODUCED_16_;
var 2..52: X_INTRODUCED_17_;
var 2..52: X_INTRODUCED_18_;
var 2..52: X_INTRODUCED_19_;
var 2..52: X_INTRODUCED_20_;
var 2..52: X_INTRODUCED_21_;
var 2..52: X_INTRODUCED_22_;
var 2..52: X_INTRODUCED_23_;
var 2..52: X_INTRODUCED_24_;
var 2..52: X_INTRODUCED_25_;
var 2..52: X_INTRODUCED_26_;
var 2..52: X_INTRODUCED_27_;
var 2..52: X_INTRODUCED_28_;
var 2..52: X_INTRODUCED_29_;
var 2..52: X_INTRODUCED_30_;
var 2..52: X_INTRODUCED_31_;
var 2..52: X_INTRODUCED_32_;
var 2..52: X_INTRODUCED_33_;
var 2..52: X_INTRODUCED_34_;
var 2..52: X_INTRODUCED_35_;
var 2..52: X_INTRODUCED_36_;
var 2..52: X_INTRODUCED_37_;
var 2..52: X_INTRODUCED_38_;
var 2..52: X_INTRODUCED_39_;
var 2..52: X_INTRODUCED_40_;
var 2..52: X_INTRODUCED_41_;
var 2..52: X_INTRODUCED_42_;
var 2..52: X_INTRODUCED_43_;
var 2..52: X_INTRODUCED_44_;
var 2..52: X_INTRODUCED_45_;
var 2..52: X_INTRODUCED_46_;
var 2..52: X_INTRODUCED_47_;
var 2..52: X_INTRODUCED_48_;
var 2..52: X_INTRODUCED_49_;
var {2,3,5,6,7,9,10,12,13,15,17,18,19,21,23,24,25,28,29,30,33,34,35,36,37,38,40,42,43,45,49,50,51,52}: X_INTRODUCED_50_;
var {12,13,15,17,18,19,23,25,28,33,36,37,38,40,43,45,49}: X_INTRODUCED_51_;
var {4,6,8,10,12,14,15,16,17,18,19,20,21,22,23,24,25,26,27,28,29,30,31,32,33,34,35,36,37,38,39,40,41,42,43,44,45,46,47,48,49,50,51}: X_INTRODUCED_53_;
var {5,7,9,11,13,15,16,17,18,19,20,21,22,23,24,25,26,27,28,29,30,31,32,33,34,35,36,37,38,39,40,41,42,43,44,45,46,47,48,49,50,51}: X_INTRODUCED_54_;
var {4,6,8,10,12,14,15,16,17,18,19,20,21,22,23,24,25,26,27,28,29,30,31,32,33,34,35,36,37,38,39,40,41,42,43,44,45,46,47,48,49,50}: X_INTRODUCED_55_;
var {11,13,14,15,16,17,18,19,20,21,22,23,24,25,26,27,28,29,30,31,32,33,34,35,36,37,38,39,40,41,42,43,44,45,46,47,48,49,50,51}: X_INTRODUCED_56_;
var {6,8,10,12,13,14,15,16,17,18,19,20,21,22,23,24,25,26,27,28,29,30,31,32,33,34,35,36,37,38,39,40,41,42,43,44,45,46,47,48,49,50,51}: X_INTRODUCED_57_;
var {7,9,11,12,13,14,15,16,17,18,19,20,21,22,23,24,25,26,27,28,29,30,31,32,33,34,35,36,37,38,39,40,41,42,43,44,45,46,47,48,49,50,51}: X_INTRODUCED_58_;
var {8,10,11,12,13,14,15,16,17,18,19,20,21,22,23,24,25,26,27,28,29,30,31,32,33,34,35,36,37,38,39,40,41,42,43,44,45,46,47,48,49,50}: X_INTRODUCED_59_;
var 9..51: X_INTRODUCED_60_;
var 9..51: X_INTRODUCED_61_;
var {8,10,11,12,13,14,15,16,17,18,19,20,21,22,23,24,25,26,27,28,29,30,31,32,33,34,35,36,37,38,39,40,41,42,43,44,45,46,47,48,49,50}: X_INTRODUCED_62_;
var {9,11,12,13,14,15,16,17,18,19,20,21,22,23,24,25,26,27,28,29,30,31,32,33,34,35,36,37,38,39,40,41,42,43,44,45,46,47,48,49,50,51,52}: X_INTRODUCED_63_;
var {8,10,12,13,14,15,16,17,18,19,20,21,22,23,24,25,26,27,28,29,30,31,32,33,34,35,36,37,38,39,40,41,42,43,44,45,46,47,48,49,50,51,52}: X_INTRODUCED_64_;
var {3,5,7,9,11,13,14,15,16,17,18,19,20,21,22,23,24,25,26,27,28,29,30,31,32,33,34,35,36,37,38,39,40,41,42,43,44,45,46,47,48,49,50}: X_INTRODUCED_65_;
var {12,14,15,16,17,18,19,20,21,22,23,24,25,26,27,28,29,30,31,32,33,34,35,36,37,38,39,40,41,42,43,44,45,46,47,48,49,50,51,52}: X_INTRODUCED_66_;
var {3,5,7,9,11,13,15,16,17,18,19,20,21,22,23,24,25,26,27,28,29,30,31,32,33,34,35,36,37,38,39,40,41,42,43,44,45,46,47,48,49,50}: X_INTRODUCED_67_;
var {12,14,15,16,17,18,19,20,21,22,23,24,25,26,27,28,29,30,31,32,33,34,35,36,37,38,39,40,41,42,43,44,45,46,47,48,49,50,51,52}: X_INTRODUCED_68_;
var {7,9,11,13,14,15,16,17,18,19,20,21,22,23,24,25,26,27,28,29,30,31,32,33,34,35,36,37,38,39,40,41,42,43,44,45,46,47,48,49,50,51,52}: X_INTRODUCED_69_;
var 12..52: X_INTRODUCED_70_;
var {7,9,11,12,13,14,15,16,17,18,19,20,21,22,23,24,25,26,27,28,29,30,31,32,33,34,35,36,37,38,39,40,41,42,43,44,45,46,47,48,49,50}: X_INTRODUCED_71_;
var {8,10,11,12,13,14,15,16,17,18,19,20,21,22,23,24,25,26,27,28,29,30,31,32,33,34,35,36,37,38,39,40,41,42,43,44,45,46,47,48,49,50,51}: X_INTRODUCED_72_;
var 9..50: X_INTRODUCED_73_;
var 9..52: X_INTRODUCED_74_;
var {8,10,11,12,13,14,15,16,17,18,19,20,21,22,23,24,25,26,27,28,29,30,31,32,33,34,35,36,37,38,39,40,41,42,43,44,45,46,47,48,49,50,51}: X_INTRODUCED_75_;
var 11..52: X_INTRODUCED_76_;
var {2,4,6,8,10,12,13,14,15,16,17,18,19,20,21,22,23,24,25,26,27,28,29,30,31,32,33,34,35,36,37,38,39,40,41,42,43,44,45,46,47,48,49,50}: X_INTRODUCED_77_;
var {3,5,7,9,11,13,14,15,16,17,18,19,20,21,22,23,24,25,26,27,28,29,30,31,32,33,34,35,36,37,38,39,40,41,42,43,44,45,46,47,48,49,50}: X_INTRODUCED_78_;
var {10,12,14,15,16,17,18,19,20,21,22,23,24,25,26,27,28,29,30,31,32,33,34,35,36,37,38,39,40,41,42,43,44,45,46,47,48,49,50,51,52}: X_INTRODUCED_79_;
var {9,11,13,15,16,17,18,19,20,21,22,23,24,25,26,27,28,29,30,31,32,33,34,35,36,37,38,39,40,41,42,43,44,45,46,47,48,49,50,51}: X_INTRODUCED_80_;
var {10,12,14,15,16,17,18,19,20,21,22,23,24,25,26,27,28,29,30,31,32,33,34,35,36,37,38,39,40,41,42,43,44,45,46,47,48,49,50,51}: X_INTRODUCED_81_;
var {5,7,9,11,13,14,15,16,17,18,19,20,21,22,23,24,25,26,27,28,29,30,31,32,33,34,35,36,37,38,39,40,41,42,43,44,45,46,47,48,49,50}: X_INTRODUCED_82_;
var {6,8,10,12,13,14,15,16,17,18,19,20,21,22,23,24,25,26,27,28,29,30,31,32,33,34,35,36,37,38,39,40,41,42,43,44,45,46,47,48,49,50}: X_INTRODUCED_83_;
var 11..52: X_INTRODUCED_84_;
var {8,10,11,12,13,14,15,16,17,18,19,20,21,22,23,24,25,26,27,28,29,30,31,32,33,34,35,36,37,38,39,40,41,42,43,44,45,46,47,48,49,50,51}: X_INTRODUCED_85_;
var 9..51: X_INTRODUCED_86_;
var 10..52: X_INTRODUCED_87_;
var 10..52: X_INTRODUCED_88_;
var 11..52: X_INTRODUCED_89_;
var {2,4,6,8,10,12,13,14,15,16,17,18,19,20,21,22,23,24,25,26,27,28,29,30,31,32,33,34,35,36,37,38,39,40,41,42,43,44,45,46,47,48,49,50}: X_INTRODUCED_90_;
var {7,9,11,13,14,15,16,17,18,19,20,21,22,23,24,25,26,27,28,29,30,31,32,33,34,35,36,37,38,39,40,41,42,43,44,45,46,47,48,49,50,51,52}: X_INTRODUCED_91_;
var {2,4,6,8,10,12,14,15,16,17,18,19,20,21,22,23,24,25,26,27,28,29,30,31,32,33,34,35,36,37,38,39,40,41,42,43,44,45,46,47,48,49,50}: X_INTRODUCED_92_;
var {9,11,13,15,16,17,18,19,20,21,22,23,24,25,26,27,28,29,30,31,32,33,34,35,36,37,38,39,40,41,42,43,44,45,46,47,48,49,50,51}: X_INTRODUCED_93_;
var {8,10,12,14,15,16,17,18,19,20,21,22,23,24,25,26,27,28,29,30,31,32,33,34,35,36,37,38,39,40,41,42,43,44,45,46,47,48,49,50,51,52}: X_INTRODUCED_94_;
var {5,7,9,11,13,14,15,16,17,18,19,20,21,22,23,24,25,26,27,28,29,30,31,32,33,34,35,36,37,38,39,40,41,42,43,44,45,46,47,48,49,50}: X_INTRODUCED_95_;
var {10,12,13,14,15,16,17,18,19,20,21,22,23,24,25,26,27,28,29,30,31,32,33,34,35,36,37,38,39,40,41,42,43,44,45,46,47,48,49,50,51,52}: X_INTRODUCED_96_;
var {7,9,11,12,13,14,15,16,17,18,19,20,21,22,23,24,25,26,27,28,29,30,31,32,33,34,35,36,37,38,39,40,41,42,43,44,45,46,47,48,49,50}: X_INTRODUCED_97_;
var {8,10,11,12,13,14,15,16,17,18,19,20,21,22,23,24,25,26,27,28,29,30,31,32,33,34,35,36,37,38,39,40,41,42,43,44,45,46,47,48,49,50}: X_INTRODUCED_98_;
var 9..50: X_INTRODUCED_99_;
var 9..52: X_INTRODUCED_100_;
var {8,10,11,12,13,14,15,16,17,18,19,20,21,22,23,24,25,26,27,28,29,30,31,32,33,34,35,36,37,38,39,40,41,42,43,44,45,46,47,48,49,50,51}: X_INTRODUCED_101_;
var {7,9,11,12,13,14,15,16,17,18,19,20,21,22,23,24,25,26,27,28,29,30,31,32,33,34,35,36,37,38,39,40,41,42,43,44,45,46,47,48,49,50,51}: X_INTRODUCED_102_;
var {10,12,13,14,15,16,17,18,19,20,21,22,23,24,25,26,27,28,29,30,31,32,33,34,35,36,37,38,39,40,41,42,43,44,45,46,47,48,49,50,51}: X_INTRODUCED_103_;
array [1..52] of var int: x:: output_array([1..52]) = [1,X_INTRODUCED_1_,X_INTRODUCED_2_,X_INTRODUCED_3_,X_INTRODUCED_4_,X_INTRODUCED_5_,X_INTRODUCED_6_,X_INTRODUCED_7_,X_INTRODUCED_8_,X_INTRODUCED_9_,X_INTRODUCED_10_,X_INTRODUCED_11_,X_INTRODUCED_12_,X_INTRODUCED_13_,X_INTRODUCED_14_,X_INTRODUCED_15_,X_INTRODUCED_16_,X_INTRODUCED_17_,X_INTRODUCED_18_,X_INTRODUCED_19_,X_INTRODUCED_20_,X_INTRODUCED_21_,X_INTRODUCED_22_,X_INTRODUCED_23_,X_INTRODUCED_24_,X_INTRODUCED_25_,X_INTRODUCED_26_,X_INTRODUCED_27_,X_INTRODUCED_28_,X_INTRODUCED_29_,X_INTRODUCED_30_,X_INTRODUCED_31_,X_INTRODUCED_32_,X_INTRODUCED_33_,X_INTRODUCED_34_,X_INTRODUCED_35_,X_INTRODUCED_36_,X_INTRODUCED_37_,X_INTRODUCED_38_,X_INTRODUCED_39_,X_INTRODUCED_40_,X_INTRODUCED_41_,X_INTRODUCED_42_,X_INTRODUCED_43_,X_INTRODUCED_44_,X_INTRODUCED_45_,X_INTRODUCED_46_,X_INTRODUCED_47_,X_INTRODUCED_48_,X_INTRODUCED_49_,X_INTRODUCED_50_,X_INTRODUCED_51_];
array [1..52] of var int: y = [1,X_INTRODUCED_53_,X_INTRODUCED_54_,X_INTRODUCED_55_,X_INTRODUCED_56_,X_INTRODUCED_57_,X_INTRODUCED_58_,X_INTRODUCED_59_,X_INTRODUCED_60_,X_INTRODUCED_61_,X_INTRODUCED_62_,X_INTRODUCED_63_,X_INTRODUCED_64_,X_INTRODUCED_65_,X_INTRODUCED_66_,X_INTRODUCED_67_,X_INTRODUCED_68_,X_INTRODUCED_69_,X_INTRODUCED_70_,X_INTRODUCED_71_,X_INTRODUCED_72_,X_INTRODUCED_73_,X_INTRODUCED_74_,X_INTRODUCED_75_,X_INTRODUCED_76_,X_INTRODUCED_77_,X_INTRODUCED_78_,X_INTRODUCED_79_,X_INTRODUCED_80_,X_INTRODUCED_81_,X_INTRODUCED_82_,X_INTRODUCED_83_,X_INTRODUCED_84_,X_INTRODUCED_85_,X_INTRODUCED_86_,X_INTRODUCED_87_,X_INTRODUCED_88_,X_INTRODUCED_89_,X_INTRODUCED_90_,X_INTRODUCED_91_,X_INTRODUCED_92_,X_INTRODUCED_93_,X_INTRODUCED_94_,X_INTRODUCED_95_,X_INTRODUCED_96_,X_INTRODUCED_97_,X_INTRODUCED_98_,X_INTRODUCED_99_,X_INTRODUCED_100_,X_INTRODUCED_101_,X_INTRODUCED_102_,X_INTRODUCED_103_];
array [1..2] of var int: X_INTRODUCED_105_ ::var_is_introduced  = [1,X_INTRODUCED_1_];
array [1..2] of var int: X_INTRODUCED_106_ ::var_is_introduced  = [X_INTRODUCED_1_,X_INTRODUCED_2_];
array [1..2] of var int: X_INTRODUCED_107_ ::var_is_introduced  = [X_INTRODUCED_2_,X_INTRODUCED_3_];
array [1..2] of var int: X_INTRODUCED_108_ ::var_is_introduced  = [X_INTRODUCED_3_,X_INTRODUCED_4_];
array [1..2] of var int: X_INTRODUCED_109_ ::var_is_introduced  = [X_INTRODUCED_4_,X_INTRODUCED_5_];
array [1..2] of var int: X_INTRODUCED_110_ ::var_is_introduced  = [X_INTRODUCED_5_,X_INTRODUCED_6_];
array [1..2] of var int: X_INTRODUCED_111_ ::var_is_introduced  = [X_INTRODUCED_6_,X_INTRODUCED_7_];
array [1..2] of var int: X_INTRODUCED_112_ ::var_is_introduced  = [X_INTRODUCED_7_,X_INTRODUCED_8_];
array [1..2] of var int: X_INTRODUCED_113_ ::var_is_introduced  = [X_INTRODUCED_8_,X_INTRODUCED_9_];
array [1..2] of var int: X_INTRODUCED_114_ ::var_is_introduced  = [X_INTRODUCED_9_,X_INTRODUCED_10_];
array [1..2] of var int: X_INTRODUCED_115_ ::var_is_introduced  = [X_INTRODUCED_10_,X_INTRODUCED_11_];
array [1..2] of var int: X_INTRODUCED_116_ ::var_is_introduced  = [X_INTRODUCED_11_,X_INTRODUCED_12_];
array [1..2] of var int: X_INTRODUCED_117_ ::var_is_introduced  = [X_INTRODUCED_12_,X_INTRODUCED_13_];
array [1..2] of var int: X_INTRODUCED_118_ ::var_is_introduced  = [X_INTRODUCED_13_,X_INTRODUCED_14_];
array [1..2] of var int: X_INTRODUCED_119_ ::var_is_introduced  = [X_INTRODUCED_14_,X_INTRODUCED_15_];
array [1..2] of var int: X_INTRODUCED_120_ ::var_is_introduced  = [X_INTRODUCED_15_,X_INTRODUCED_16_];
array [1..2] of var int: X_INTRODUCED_121_ ::var_is_introduced  = [X_INTRODUCED_16_,X_INTRODUCED_17_];
array [1..2] of var int: X_INTRODUCED_122_ ::var_is_introduced  = [X_INTRODUCED_17_,X_INTRODUCED_18_];
array [1..2] of var int: X_INTRODUCED_123_ ::var_is_introduced  = [X_INTRODUCED_18_,X_INTRODUCED_19_];
array [1..2] of var int: X_INTRODUCED_124_ ::var_is_introduced  = [X_INTRODUCED_19_,X_INTRODUCED_20_];
array [1..2] of var int: X_INTRODUCED_125_ ::var_is_introduced  = [X_INTRODUCED_20_,X_INTRODUCED_21_];
array [1..2] of var int: X_INTRODUCED_126_ ::var_is_introduced  = [X_INTRODUCED_21_,X_INTRODUCED_22_];
array [1..2] of var int: X_INTRODUCED_127_ ::var_is_introduced  = [X_INTRODUCED_22_,X_INTRODUCED_23_];
array [1..2] of var int: X_INTRODUCED_128_ ::var_is_introduced  = [X_INTRODUCED_23_,X_INTRODUCED_24_];
array [1..2] of var int: X_INTRODUCED_129_ ::var_is_introduced  = [X_INTRODUCED_24_,X_INTRODUCED_25_];
array [1..2] of var int: X_INTRODUCED_130_ ::var_is_introduced  = [X_INTRODUCED_25_,X_INTRODUCED_26_];
array [1..2] of var int: X_INTRODUCED_131_ ::var_is_introduced  = [X_INTRODUCED_26_,X_INTRODUCED_27_];
array [1..2] of var int: X_INTRODUCED_132_ ::var_is_introduced  = [X_INTRODUCED_27_,X_INTRODUCED_28_];
array [1..2] of var int: X_INTRODUCED_133_ ::var_is_introduced  = [X_INTRODUCED_28_,X_INTRODUCED_29_];
array [1..2] of var int: X_INTRODUCED_134_ ::var_is_introduced  = [X_INTRODUCED_29_,X_INTRODUCED_30_];
array [1..2] of var int: X_INTRODUCED_135_ ::var_is_introduced  = [X_INTRODUCED_30_,X_INTRODUCED_31_];
array [1..2] of var int: X_INTRODUCED_136_ ::var_is_introduced  = [X_INTRODUCED_31_,X_INTRODUCED_32_];
array [1..2] of var int: X_INTRODUCED_137_ ::var_is_introduced  = [X_INTRODUCED_32_,X_INTRODUCED_33_];
array [1..2] of var int: X_INTRODUCED_138_ ::var_is_introduced  = [X_INTRODUCED_33_,X_INTRODUCED_34_];
array [1..2] of var int: X_INTRODUCED_139_ ::var_is_introduced  = [X_INTRODUCED_34_,X_INTRODUCED_35_];
array [1..2] of var int: X_INTRODUCED_140_ ::var_is_introduced  = [X_INTRODUCED_35_,X_INTRODUCED_36_];
array [1..2] of var int: X_INTRODUCED_141_ ::var_is_introduced  = [X_INTRODUCED_36_,X_INTRODUCED_37_];
array [1..2] of var int: X_INTRODUCED_142_ ::var_is_introduced  = [X_INTRODUCED_37_,X_INTRODUCED_38_];
array [1..2] of var int: X_INTRODUCED_143_ ::var_is_introduced  = [X_INTRODUCED_38_,X_INTRODUCED_39_];
array [1..2] of var int: X_INTRODUCED_144_ ::var_is_introduced  = [X_INTRODUCED_39_,X_INTRODUCED_40_];
array [1..2] of var int: X_INTRODUCED_145_ ::var_is_introduced  = [X_INTRODUCED_40_,X_INTRODUCED_41_];
array [1..2] of var int: X_INTRODUCED_146_ ::var_is_introduced  = [X_INTRODUCED_41_,X_INTRODUCED_42_];
array [1..2] of var int: X_INTRODUCED_147_ ::var_is_introduced  = [X_INTRODUCED_42_,X_INTRODUCED_43_];
array [1..2] of var int: X_INTRODUCED_148_ ::var_is_introduced  = [X_INTRODUCED_43_,X_INTRODUCED_44_];
array [1..2] of var int: X_INTRODUCED_149_ ::var_is_introduced  = [X_INTRODUCED_44_,X_INTRODUCED_45_];
array [1..2] of var int: X_INTRODUCED_150_ ::var_is_introduced  = [X_INTRODUCED_45_,X_INTRODUCED_46_];
array [1..2] of var int: X_INTRODUCED_151_ ::var_is_introduced  = [X_INTRODUCED_46_,X_INTRODUCED_47_];
array [1..2] of var int: X_INTRODUCED_152_ ::var_is_introduced  = [X_INTRODUCED_47_,X_INTRODUCED_48_];
array [1..2] of var int: X_INTRODUCED_153_ ::var_is_introduced  = [X_INTRODUCED_48_,X_INTRODUCED_49_];
array [1..2] of var int: X_INTRODUCED_154_ ::var_is_introduced  = [X_INTRODUCED_49_,X_INTRODUCED_50_];
array [1..2] of var int: X_INTRODUCED_155_ ::var_is_introduced  = [X_INTRODUCED_50_,X_INTRODUCED_51_];
constraint fzn_table_int(X_INTRODUCED_105_,X_INTRODUCED_104_);
constraint fzn_table_int(X_INTRODUCED_106_,X_INTRODUCED_104_);
constraint fzn_table_int(X_INTRODUCED_107_,X_INTRODUCED_104_);
constraint fzn_table_int(X_INTRODUCED_108_,X_INTRODUCED_104_);
constraint fzn_table_int(X_INTRODUCED_109_,X_INTRODUCED_104_);
constraint fzn_table_int(X_INTRODUCED_110_,X_INTRODUCED_104_);
constraint fzn_table_int(X_INTRODUCED_111_,X_INTRODUCED_104_);
constraint fzn_table_int(X_INTRODUCED_112_,X_INTRODUCED_104_);
constraint fzn_table_int(X_INTRODUCED_113_,X_INTRODUCED_104_);
constraint fzn_table_int(X_INTRODUCED_114_,X_INTRODUCED_104_);
constraint fzn_table_int(X_INTRODUCED_115_,X_INTRODUCED_104_);
constraint fzn_table_int(X_INTRODUCED_116_,X_INTRODUCED_104_);
constraint fzn_table_int(X_INTRODUCED_117_,X_INTRODUCED_104_);
constraint fzn_table_int(X_INTRODUCED_118_,X_INTRODUCED_104_);
constraint fzn_table_int(X_INTRODUCED_119_,X_INTRODUCED_104_);
constraint fzn_table_int(X_INTRODUCED_120_,X_INTRODUCED_104_);
constraint fzn_table_int(X_INTRODUCED_121_,X_INTRODUCED_104_);
constraint fzn_table_int(X_INTRODUCED_122_,X_INTRODUCED_104_);
constraint fzn_table_int(X_INTRODUCED_123_,X_INTRODUCED_104_);
constraint fzn_table_int(X_INTRODUCED_124_,X_INTRODUCED_104_);
constraint fzn_table_int(X_INTRODUCED_125_,X_INTRODUCED_104_);
constraint fzn_table_int(X_INTRODUCED_126_,X_INTRODUCED_104_);
constraint fzn_table_int(X_INTRODUCED_127_,X_INTRODUCED_104_);
constraint fzn_table_int(X_INTRODUCED_128_,X_INTRODUCED_104_);
constraint fzn_table_int(X_INTRODUCED_129_,X_INTRODUCED_104_);
constraint fzn_table_int(X_INTRODUCED_130_,X_INTRODUCED_104_);
constraint fzn_table_int(X_INTRODUCED_131_,X_INTRODUCED_104_);
constraint fzn_table_int(X_INTRODUCED_132_,X_INTRODUCED_104_);
constraint fzn_table_int(X_INTRODUCED_133_,X_INTRODUCED_104_);
constraint fzn_table_int(X_INTRODUCED_134_,X_INTRODUCED_104_);
constraint fzn_table_int(X_INTRODUCED_135_,X_INTRODUCED_104_);
constraint fzn_table_int(X_INTRODUCED_136_,X_INTRODUCED_104_);
constraint fzn_table_int(X_INTRODUCED_137_,X_INTRODUCED_104_);
constraint fzn_table_int(X_INTRODUCED_138_,X_INTRODUCED_104_);
constraint fzn_table_int(X_INTRODUCED_139_,X_INTRODUCED_104_);
constraint fzn_table_int(X_INTRODUCED_140_,X_INTRODUCED_104_);
constraint fzn_table_int(X_INTRODUCED_141_,X_INTRODUCED_104_);
constraint fzn_table_int(X_INTRODUCED_142_,X_INTRODUCED_104_);
constraint fzn_table_int(X_INTRODUCED_143_,X_INTRODUCED_104_);
constraint fzn_table_int(X_INTRODUCED_144_,X_INTRODUCED_104_);
constraint fzn_table_int(X_INTRODUCED_145_,X_INTRODUCED_104_);
constraint fzn_table_int(X_INTRODUCED_146_,X_INTRODUCED_104_);
constraint fzn_table_int(X_INTRODUCED_147_,X_INTRODUCED_104_);
constraint fzn_table_int(X_INTRODUCED_148_,X_INTRODUCED_104_);
constraint fzn_table_int(X_INTRODUCED_149_,X_INTRODUCED_104_);
constraint fzn_table_int(X_INTRODUCED_150_,X_INTRODUCED_104_);
constraint fzn_table_int(X_INTRODUCED_151_,X_INTRODUCED_104_);
constraint fzn_table_int(X_INTRODUCED_152_,X_INTRODUCED_104_);
constraint fzn_table_int(X_INTRODUCED_153_,X_INTRODUCED_104_);
constraint fzn_table_int(X_INTRODUCED_154_,X_INTRODUCED_104_);
constraint fzn_table_int(X_INTRODUCED_155_,X_INTRODUCED_104_);
constraint fzn_inverse(x,y):: domain;
constraint int_lin_le(X_INTRODUCED_156_,[X_INTRODUCED_62_,X_INTRODUCED_103_],-1);
constraint int_lin_le(X_INTRODUCED_156_,[X_INTRODUCED_103_,X_INTRODUCED_70_],-1);
constraint int_lin_le(X_INTRODUCED_156_,[X_INTRODUCED_77_,X_INTRODUCED_75_],-1);
constraint int_lin_le(X_INTRODUCED_156_,[X_INTRODUCED_75_,X_INTRODUCED_96_],-1);
constraint int_lin_le(X_INTRODUCED_156_,[X_INTRODUCED_82_,X_INTRODUCED_85_],-1);
constraint int_lin_le(X_INTRODUCED_156_,[X_INTRODUCED_85_,X_INTRODUCED_79_],-1);
constraint int_lin_le(X_INTRODUCED_156_,[X_INTRODUCED_71_,X_INTRODUCED_101_],-1);
constraint int_lin_le(X_INTRODUCED_156_,[X_INTRODUCED_101_,X_INTRODUCED_63_],-1);
constraint int_lin_le(X_INTRODUCED_156_,[X_INTRODUCED_78_,X_INTRODUCED_53_],-1);
constraint int_lin_le(X_INTRODUCED_156_,[X_INTRODUCED_53_,X_INTRODUCED_74_],-1);
constraint int_lin_le(X_INTRODUCED_156_,[X_INTRODUCED_73_,X_INTRODUCED_81_],-1);
constraint int_lin_le(X_INTRODUCED_156_,[X_INTRODUCED_81_,X_INTRODUCED_68_],-1);
constraint int_lin_le(X_INTRODUCED_156_,[X_INTRODUCED_95_,X_INTRODUCED_61_],-1);
constraint int_lin_le(X_INTRODUCED_156_,[X_INTRODUCED_61_,X_INTRODUCED_89_],-1);
constraint int_lin_le(X_INTRODUCED_156_,[X_INTRODUCED_98_,X_INTRODUCED_93_],-1);
constraint int_lin_le(X_INTRODUCED_156_,[X_INTRODUCED_93_,X_INTRODUCED_84_],-1);
constraint int_lin_le(X_INTRODUCED_156_,[X_INTRODUCED_90_,X_INTRODUCED_86_],-1);
constraint int_lin_le(X_INTRODUCED_156_,[X_INTRODUCED_86_,X_INTRODUCED_88_],-1);
constraint int_lin_le(X_INTRODUCED_156_,[X_INTRODUCED_92_,X_INTRODUCED_58_],-1);
constraint int_lin_le(X_INTRODUCED_156_,[X_INTRODUCED_58_,X_INTRODUCED_94_],-1);
constraint int_lin_le(X_INTRODUCED_156_,[X_INTRODUCED_97_,X_INTRODUCED_72_],-1);
constraint int_lin_le(X_INTRODUCED_156_,[X_INTRODUCED_72_,X_INTRODUCED_100_],-1);
constraint int_lin_le(X_INTRODUCED_156_,[X_INTRODUCED_67_,X_INTRODUCED_57_],-1);
constraint int_lin_le(X_INTRODUCED_156_,[X_INTRODUCED_57_,X_INTRODUCED_69_],-1);
constraint int_lin_le(X_INTRODUCED_156_,[X_INTRODUCED_59_,X_INTRODUCED_80_],-1);
constraint int_lin_le(X_INTRODUCED_156_,[X_INTRODUCED_80_,X_INTRODUCED_87_],-1);
constraint int_lin_le(X_INTRODUCED_156_,[X_INTRODUCED_99_,X_INTRODUCED_56_],-1);
constraint int_lin_le(X_INTRODUCED_156_,[X_INTRODUCED_56_,X_INTRODUCED_66_],-1);
constraint int_lin_le(X_INTRODUCED_156_,[X_INTRODUCED_83_,X_INTRODUCED_102_],-1);
constraint int_lin_le(X_INTRODUCED_156_,[X_INTRODUCED_102_,X_INTRODUCED_64_],-1);
constraint int_lin_le(X_INTRODUCED_156_,[X_INTRODUCED_65_,X_INTRODUCED_54_],-1);
constraint int_lin_le(X_INTRODUCED_156_,[X_INTRODUCED_54_,X_INTRODUCED_91_],-1);
constraint int_lin_le(X_INTRODUCED_156_,[X_INTRODUCED_55_,X_INTRODUCED_60_],-1);
constraint int_lin_le(X_INTRODUCED_156_,[X_INTRODUCED_60_,X_INTRODUCED_76_],-1);
solve :: int_search(x,input_order,indomain_min,complete) satisfy;
