mznc2025_probs/black-hole/black-hole.ozn
output ["x = ",show(x),";\n"];
array [1..52] of int: x;
